PARAMETER_FILE = even/even_uncomplete_graph_new/de/par/random41.par
PROBLEM_FILE = even/even_uncomplete_graph_new/de/mat/random41.tsp
Successes/Runs = 0/10
Cost.min = 499, Cost.avg = 499.00, Cost.max = 499
Gap.min = 0.0000%, Gap.avg = 0.0000%, Gap.max = 0.0000%
Trials.min = 1000, Trials.avg = 1000.0, Trials.max = 1000
Time.min = 0.05 sec., Time.avg = 0.05 sec., Time.max = 0.06 sec.
Time.total = 0.55 sec.
